# 3273
param k := 6;
param n := 60;
param s := 1;
set E :=  (0,17) (0,54) (1,16) (1,59) (2,43) (3,26) (3,33) (3,40) (4,18) (4,51) (5,34) (5,57) (6,10) (6,44) (6,58) (7,11) (7,12) (7,24) (7,40) (7,57) (8,10) (9,19) (9,22) (10,17) (10,21) (10,23) (10,25) (11,13) (11,14) (11,15) (11,36) (13,17) (13,42) (13,45) (15,16) (15,37) (16,45) (17,49) (17,55) (19,47) (20,31) (20,54) (24,26) (25,29) (25,42) (25,52) (27,55) (28,41) (30,45) (30,51) (31,38) (31,39) (32,55) (33,51) (35,48) (39,46) (40,41) (41,55) (43,50) (47,53) (48,50) (49,56) (50,55) (53,56);